2 30
311 360 
0 73 63 91 81 39 96 1
1 55 45 32 22 14 42 1
2 61 51 96 86 91 52 1
3 44 34 52 42 5 86 2
4 35 25 106 96 66 46 2
5 97 87 106 96 24 69 2
6 108 98 55 45 97 61 2
7 25 15 110 100 79 94 2
8 109 99 60 50 20 48 1
9 15 5 83 73 79 32 1
10 99 89 45 35 61 24 1
11 94 84 103 93 61 8 2
12 26 16 61 51 65 92 2
13 67 57 23 13 59 88 2
14 81 71 19 9 58 66 1
15 41 31 73 63 48 1 1
16 90 80 65 55 39 87 2
17 68 58 20 10 6 56 1
18 55 45 102 92 14 6 1
19 68 58 36 26 97 52 2
20 57 47 103 93 85 5 1
21 96 86 89 79 9 43 1
22 64 54 75 65 33 60 2
23 20 10 93 83 62 37 2
24 97 87 40 30 28 4 1
25 28 18 89 79 17 40 1
26 45 35 92 82 40 53 1
27 71 61 12 2 65 43 1
28 54 44 80 70 4 56 1
29 16 6 89 79 87 8 1
